p cnf 56 148
1 -33 0
1 -34 0
33 -33 0
34 -34 0
17 -35 0
17 -36 0
35 -35 0
36 -36 0
2 -37 -33 0
-2 37 -33 0
2 37 -34 0
-2 -37 -34 0
18 -37 -35 0
-18 37 -35 0
18 37 -36 0
-18 -37 -36 0
3 -33 0
3 -34 0
33 -33 0
34 -34 0
19 -35 0
19 -36 0
35 -35 0
36 -36 0
4 -38 -33 0
-4 38 -33 0
4 38 -34 0
-4 -38 -34 0
20 -38 -35 0
-20 38 -35 0
20 38 -36 0
-20 -38 -36 0
5 -33 0
5 -34 0
33 -33 0
34 -34 0
21 -35 0
21 -36 0
35 -35 0
36 -36 0
6 -33 0
6 -34 0
33 -33 0
34 -34 0
22 -35 0
22 -36 0
35 -35 0
36 -36 0
7 -39 -33 0
-7 39 -33 0
7 39 -34 0
-7 -39 -34 0
23 -39 -35 0
-23 39 -35 0
23 39 -36 0
-23 -39 -36 0
8 -33 0
8 -34 0
33 -33 0
34 -34 0
24 -35 0
24 -36 0
35 -35 0
36 -36 0
9 -33 0
9 -34 0
33 -33 0
34 -34 0
25 -35 0
25 -36 0
35 -35 0
36 -36 0
10 -40 -33 0
-10 40 -33 0
10 40 -34 0
-10 -40 -34 0
26 -40 -35 0
-26 40 -35 0
26 40 -36 0
-26 -40 -36 0
11 -33 0
11 -34 0
33 -33 0
34 -34 0
27 -35 0
27 -36 0
35 -35 0
36 -36 0
-12 -33 0
-12 -34 0
33 -33 0
34 -34 0
-28 -35 0
-28 -36 0
35 -35 0
36 -36 0
13 -41 -33 0
-13 41 -33 0
13 41 -34 0
-13 -41 -34 0
29 -41 -35 0
-29 41 -35 0
29 41 -36 0
-29 -41 -36 0
14 -42 -33 0
-14 42 -33 0
14 42 -34 0
-14 -42 -34 0
30 -42 -35 0
-30 42 -35 0
30 42 -36 0
-30 -42 -36 0
15 -33 0
15 -34 0
33 -33 0
34 -34 0
31 -35 0
31 -36 0
35 -35 0
36 -36 0
16 -33 0
16 -34 0
33 -33 0
34 -34 0
32 -35 0
32 -36 0
35 -35 0
36 -36 0
-53 33 0
53 -33 0
-54 34 0
53 -34 0
-53 -33 0
-54 -34 0
-55 33 53 0
55 -33 0
55 -53 0
-56 34 54 0
56 -34 0
56 -54 0
-55 -35 0
-56 -36 0
55 0
56 0
-33 36 0
-34 0
-35 0
-36 33 0
